17
16
6 2 10 16 9 0 15 3 11
14 10 11 4 15 13 16 7 5
12 5 0 1 13 3 10 15 8 2 16 9
4 14 15
6 0 3 5 4 10 14 9 12 1 8 11 13 16 2 7 15
2 7 1 14 3 16
0 4 8 2 11 14 12 7 15 5 16 9 13 3 6
14 4 10 2 1 6 9 16 0
4 11 0 12 9 15 8 2 3 1 14 6 5
14 10 6 16 9 5 3 15 0 11 2 1
11 13 12 9 5 0 15 7 1
3 13 16 15 10 5
12 8 1 16 4 7 14 2 11
5 10 6 4 12 7 8 9 3
7 6 5 4 3 8 1 15 9 2 10 13 12 14 11
16 11 0 8 6 5 14 2 3 9 10 4 1 7
